Sun 20 May 09:17:13 CEST 2018
CPXPARAM_TimeLimit                               45
CPXPARAM_Threads                                 4
CPXPARAM_MIP_Strategy_CallbackReducedLP          0
Tried aggregator 2 times.
MIP Presolve eliminated 1521 rows and 1130 columns.
MIP Presolve modified 236 coefficients.
Aggregator did 358 substitutions.
Reduced MIP has 826 rows, 983 columns, and 2602 nonzeros.
Reduced MIP has 977 binaries, 6 generals, 0 SOSs, and 224 indicators.
Presolve time = 0.01 sec. (5.49 ticks)
Found incumbent of value 9.000000 after 0.02 sec. (12.64 ticks)
Probing time = 0.01 sec. (8.50 ticks)
Cover probing fixed 0 vars, tightened 6 bounds.
Tried aggregator 3 times.
MIP Presolve modified 90 coefficients.
Aggregator did 498 substitutions.
Reduced MIP has 359 rows, 485 columns, and 1704 nonzeros.
Reduced MIP has 479 binaries, 6 generals, 0 SOSs, and 193 indicators.
Presolve time = 0.00 sec. (4.00 ticks)
Probing time = 0.01 sec. (3.40 ticks)
Tried aggregator 2 times.
Aggregator did 31 substitutions.
Reduced MIP has 328 rows, 454 columns, and 1642 nonzeros.
Reduced MIP has 448 binaries, 6 generals, 0 SOSs, and 193 indicators.
Presolve time = 0.00 sec. (2.59 ticks)
Probing time = 0.00 sec. (2.50 ticks)
Clique table members: 2974.
MIP emphasis: balance optimality and feasibility.
MIP search method: dynamic search.
Parallel mode: deterministic, using up to 4 threads.
Root relaxation solution time = 0.00 sec. (0.57 ticks)

        Nodes                                         Cuts/
   Node  Left     Objective  IInf  Best Integer    Best Bound    ItCnt     Gap

*     0+    0                            9.0000        2.0000            77.78%
      0     0        2.0000   193        9.0000        2.0000       24   77.78%
      0     0        2.0000   145        9.0000  Cliques: 182      141   77.78%
      0     0        2.0000    56        9.0000  Cliques: 182      286   77.78%
      0     0        2.0000    23        9.0000  Cliques: 182      377   77.78%
      0     0        2.0000    18        9.0000      Cuts: 58      450   77.78%
      0     0        2.0000     6        9.0000      Cuts: 54      463   77.78%
      0     0        2.0000     7        9.0000  Impl Bds: 31      478   77.78%
      0     0        2.0000     4        9.0000      Cuts: 63      486   77.78%
*     0+    0                            7.0000        2.0000            71.43%
*     0+    0                            4.0000        2.0000            50.00%
      0     0        cutoff              4.0000        4.0000      486    0.00%
Elapsed time = 0.11 sec. (91.42 ticks, tree = 0.01 MB, solutions = 4)

Clique cuts applied:  20
Implied bound cuts applied:  136
Zero-half cuts applied:  1

Root node processing (before b&c):
  Real time             =    0.11 sec. (91.55 ticks)
Parallel b&c, 4 threads:
  Real time             =    0.00 sec. (0.00 ticks)
  Sync time (average)   =    0.00 sec.
  Wait time (average)   =    0.00 sec.
                          ------------
Total (root+branch&cut) =    0.11 sec. (91.55 ticks)
  | W
L | 0 1 2 3 4 5 6 
------------------
0 | 2 2 4 4 3 3 1 
1 | 2 2 4 4 3 3 . 
2 | . . . . . 5 5 
3 | . . . . . 5 5 
4 | . . . . . . . 
5 | . . . . . . . 
6 | . . . . . . . 
7 | . . . . . . . 
8 | . . . . . . . 

Boxes' corners:      (w,l)
    Box 1 is at 
        top left     (6,0)
        bottom right (6,0)

    Box 2 is at 
        top left     (0,0)
        bottom right (1,1)

    Box 3 is at 
        top left     (4,0)
        bottom right (5,1)

    Box 4 is at 
        top left     (2,0)
        bottom right (3,1)

    Box 5 is at 
        top left     (5,2)
        bottom right (6,3)

    Roll length used: 4
In 0.17 seconds
